102335
59 91 79 95 32 19 6 58 72 14 71 69 93 46 62 96 20 45 52 12 27 5 37 2 8 68 41 29 78 25 49 57 1 70 43 10 80 97 47 22 77 9 21 60 28 63 67 98 0 75 30 39 11 50 94 3 65 73 34 36 48 44 85 7 31 87 35 99 90 55 40 83 17 33 26 4 66 92 23 76 54 86 24 74 53 51 84 61 88 81 13 16 64 82 18 15 38 89 56 42 
